c Sudoku solution
p cnf 729 0
133 0
212 0
296 0
336 0
357 0
375 0
469 0
511 0
526 0
577 0
619 0
637 0
447 0
658 0
676 0
456 0
693 0
732 0
799 0
589 0
828 0
863 0
913 0
423 0
622 0
929 0
239 0
179 0
349 0
383 0
859 0
773 0
934 0
831 0
414 0
318 0
966 0
767 0
725 0
716 0
817 0
886 0
115 0
146 0
995 0
987 0
845 0
197 0
227 0
121 0
324 0
243 0
553 0
255 0
391 0
182 0
154 0
168 0
362 0
261 0
952 0
542 0
751 0
948 0
744 0
971 0
788 0
641 0
481 0
685 0
594 0
435 0
538 0
565 0
664 0
284 0
278 0
874 0
892 0
472 0
498 0
